
--- Job MultipleLineRegression.gms Start 09/20/21 17:09:40 36.1.0 r2c0a44a WEX-WEI x86 64bit/MS Windows
--- Applying:
    C:\GAMS\36\gmsprmNT.txt
    C:\Users\Erwin\Documents\GAMS\gamsconfig.yaml
--- GAMS Parameters defined
    Input D:\projects\OptimizationModels\MultipleLineRegression\MultipleLineRegression.gms
    PageWidth 120
    PageSize 0
    PageContr 3
    Action CE
    ScrDir D:\projects\OptimizationModels\MultipleLineRegression\225a\
    SysDir C:\GAMS\36\
    WorkDir D:\projects\OptimizationModels\MultipleLineRegression\
    LogOption 3
    DFormat 0
    TFormat 0
    ErrorLog 99
    IDE 1
Licensee: Eval License                                   S201210/0001CO-GEN
          Amsterdam Optimization Modeling Group,                     DCE378
          C:\Users\Erwin\Documents\GAMS\gamslice.txt
          Evaluation license: Not for commercial or production use
Processor information: 1 socket(s), 4 core(s), and 8 thread(s) available
GAMS 36.1.0   Copyright (C) 1987-2021 GAMS Development. All rights reserved
--- Starting compilation
--- MultipleLineRegression.gms(148) 3 Mb
--- Starting execution: elapsed 0:00:00.419
--- MultipleLineRegression.gms(103) 4 Mb
--- Generating MIQCP model m1
--- MultipleLineRegression.gms(105) 6 Mb
---   403 rows  287 columns  1,125 non-zeroes
---   122 nl-code  40 nl-non-zeroes
---   120 discrete-columns
--- MultipleLineRegression.gms(105) 4 Mb
--- Executing CPLEX (Solvelink=2): elapsed 0:00:00.981

IBM ILOG CPLEX   36.1.0 r2c0a44a Released Aug 02, 2021 WEI x86 64bit/MS Window

--- GAMS/Cplex Link licensed for continuous and discrete problems.
--- GMO setup time: 0.02s
--- Space for names approximately 0.01 Mb
--- Use option 'names no' to turn use of names off
--- GMO memory 0.62 Mb (peak 0.62 Mb)
--- Dictionary memory 0.00 Mb
--- Cplex 20.1.0.1 link memory 0.01 Mb (peak 0.04 Mb)
--- Starting Cplex

Version identifier: 20.1.0.1 | 2021-04-07 | 3a818710c
CPXPARAM_Advance                                 0
CPXPARAM_Threads                                 8
CPXPARAM_Parallel                                1
CPXPARAM_MIP_Display                             4
CPXPARAM_MIP_Tolerances_AbsMIPGap                0
CPXPARAM_MIP_Tolerances_MIPGap                   0
Generic callback                                 0x50
Found incumbent of value 124056.688158 after 0.09 sec. (0.03 ticks)
Tried aggregator 1 time.
MIQP Presolve eliminated 0 rows and 1 columns.
Reduced MIQP has 402 rows, 286 columns, and 1084 nonzeros.
Reduced MIQP has 120 binaries, 0 generals, 0 SOSs, and 0 indicators.
Reduced MIQP objective Q matrix has 40 nonzeros.
Presolve time = 0.08 sec. (0.48 ticks)
Probing time = 0.00 sec. (0.07 ticks)
Tried aggregator 1 time.
Reduced MIQP has 402 rows, 286 columns, and 1084 nonzeros.
Reduced MIQP has 120 binaries, 0 generals, 0 SOSs, and 0 indicators.
Reduced MIQP objective Q matrix has 40 nonzeros.
Presolve time = 0.00 sec. (0.43 ticks)
Classifier predicts products in MIQP should be linearized.
Probing time = 0.00 sec. (0.07 ticks)
Clique table members: 40.
MIP emphasis: balance optimality and feasibility.
MIP search method: dynamic search.
Parallel mode: deterministic, using up to 8 threads.
Tried aggregator 1 time.
No QP presolve or aggregator reductions.
Presolve time = 0.02 sec. (0.19 ticks)
Parallel mode: using up to 8 threads for barrier.

***NOTE: Found 6 dense columns.

Number of nonzeros in lower triangle of A*A' = 720
Using Approximate Minimum Degree ordering
Total time for automatic ordering = 0.00 sec. (0.06 ticks)
Summary statistics for Cholesky factor:
  Threads                   = 8
  Rows in Factor            = 408
  Integer space required    = 635
  Total non-zeros in factor = 4457
  Total FP ops to factor    = 52977
 Itn      Primal Obj        Dual Obj  Prim Inf Upper Inf  Dual Inf          
   0   4.9224661e+07  -7.0954036e+07  7.47e+03  2.35e+03  5.10e+06
   1   7.3703522e+05  -3.7393337e+06  9.12e+02  2.86e+02  6.23e+05
   2   1.6964617e+04  -6.6391969e+05  1.30e+02  4.08e+01  9.24e+04
   3   2.3433924e+03  -3.3508732e+05  4.75e+01  1.48e+01  3.36e+04
   4   2.1095892e+00  -1.5466616e+04  1.42e+00  4.44e-01  1.01e+03
   5   5.6497535e-05  -7.9911784e+01  7.21e-03  2.25e-03  5.11e+00
   6   2.8656076e-09  -6.9269063e-01  5.35e-05  1.67e-05  3.80e-02
   7   1.8139912e-13  -6.4228345e-03  4.29e-07  1.34e-07  3.04e-04
   8   1.3039670e-17  -6.2083898e-05  3.61e-09  1.13e-09  2.56e-06
   9   8.3003485e-22  -5.6803406e-07  2.93e-11  9.80e-12  2.01e-08
  10   2.6013920e-26  -3.8650553e-09  1.32e-12  6.52e-13  1.11e-10
  11   6.6919061e-31  -2.4326147e-11  9.68e-13  4.86e-13  5.54e-13
Barrier time = 0.16 sec. (1.84 ticks)

QP crossover.
  Primal and Dual:  Fixing 86 variables.
  Primal:  Pushed 30, exchanged 56.
  Dual  :  Pushed 0, exchanged 56.
Total crossover time = 0.09 sec. (1.65 ticks)

Total time on 8 threads = 0.27 sec. (3.68 ticks)
Root relaxation solution time = 0.30 sec. (3.69 ticks)

        Nodes                                         Cuts/
   Node  Left     Objective  IInf  Best Integer    Best Bound    ItCnt     Gap

*     0+    0                       124056.6882        0.0000           100.00%
Found incumbent of value 124056.688158 after 0.53 sec. (5.19 ticks)
      0     0        0.0000    90   124056.6882        0.0000       11  100.00%
*     0+    0                        25609.8189        0.0000           100.00%
Found incumbent of value 25609.818875 after 0.59 sec. (8.20 ticks)
*     0+    0                        21845.1457        0.0000           100.00%
Found incumbent of value 21845.145689 after 0.66 sec. (16.45 ticks)
*     0+    0                        20248.6804        0.0000           100.00%
Found incumbent of value 20248.680416 after 0.77 sec. (30.62 ticks)
      0     2        0.0000    94    20248.6804        0.0000      208  100.00%
Elapsed time = 0.81 sec. (34.33 ticks, tree = 0.02 MB, solutions = 4)
*    10+    4                        18544.9610        0.0000           100.00%
Found incumbent of value 18544.961049 after 0.86 sec. (40.93 ticks)
*    87+   20                        16903.1094        0.0000           100.00%
Found incumbent of value 16903.109427 after 0.94 sec. (49.66 ticks)
*    94+   26                        16100.6702        0.0000           100.00%
Found incumbent of value 16100.670173 after 0.95 sec. (51.13 ticks)
*    94+   25                        13755.0189        0.0000           100.00%
Found incumbent of value 13755.018904 after 0.95 sec. (51.23 ticks)
*   145+   93                        13163.3270        0.0000           100.00%
Found incumbent of value 13163.327010 after 1.00 sec. (58.12 ticks)
*   168+  112                        12445.5899        0.0000           100.00%
Found incumbent of value 12445.589947 after 1.02 sec. (60.70 ticks)
*   241+  143                        12271.2927        0.0000           100.00%
Found incumbent of value 12271.292654 after 1.08 sec. (65.92 ticks)
*   626+  410                        11697.8123        0.0000           100.00%
Found incumbent of value 11697.812295 after 1.34 sec. (95.02 ticks)
*   683   465      integral     0    10831.7923        0.0000     4461  100.00%
Found incumbent of value 10831.792334 after 1.38 sec. (98.29 ticks)
*  1262+  770                         9993.7071        0.0000           100.00%
Found incumbent of value 9993.707144 after 1.67 sec. (134.94 ticks)
*  1350+  855                         9993.7071        0.0000           100.00%
Found incumbent of value 9993.707144 after 1.77 sec. (144.07 ticks)
*  1380   897      integral     0     9563.1783        0.0000     8229  100.00%
Found incumbent of value 9563.178324 after 1.78 sec. (145.83 ticks)
   2425  1696     8097.5320    52     9563.1783        0.0000    16875  100.00%
*  4708+ 2549                         9006.8720        0.0000           100.00%
Found incumbent of value 9006.872008 after 3.94 sec. (478.24 ticks)
*  4856+ 2549                         8947.3751        0.0000           100.00%
Found incumbent of value 8947.375098 after 4.02 sec. (489.11 ticks)
*  5305+ 2619                         7679.9926        0.0000           100.00%
Found incumbent of value 7679.992552 after 4.16 sec. (517.15 ticks)
*  5387+ 2619                         6365.7427        0.0000           100.00%
Found incumbent of value 6365.742684 after 4.17 sec. (524.08 ticks)
*  5454+ 2619                         6143.4304        0.0000           100.00%
Found incumbent of value 6143.430407 after 4.20 sec. (528.35 ticks)
*  5533+ 2619                         6009.5182        0.0000           100.00%
Found incumbent of value 6009.518244 after 4.22 sec. (534.13 ticks)
*  5572+ 2619                         5912.7638        0.0000           100.00%
Found incumbent of value 5912.763849 after 4.25 sec. (537.96 ticks)
*  6128+ 2683                         5167.8759        0.0000           100.00%
Found incumbent of value 5167.875935 after 4.41 sec. (574.35 ticks)
   6142  4482     8052.0772    56     5167.8759        0.0000    40908  100.00%
*  6299+ 2619                         4889.6345        0.0000           100.00%
Found incumbent of value 4889.634548 after 4.47 sec. (586.88 ticks)
*  6384+ 2619                         3871.4465        0.0000           100.00%
Found incumbent of value 3871.446540 after 4.52 sec. (592.36 ticks)

Performing restart 1

Repeating presolve.
Tried aggregator 1 time.
Reduced MIQP has 402 rows, 286 columns, and 1084 nonzeros.
Reduced MIQP has 120 binaries, 0 generals, 0 SOSs, and 0 indicators.
Reduced MIQP objective Q matrix has 40 nonzeros.
Presolve time = 0.03 sec. (0.46 ticks)
Tried aggregator 1 time.
Reduced MIQP has 402 rows, 286 columns, and 1084 nonzeros.
Reduced MIQP has 120 binaries, 0 generals, 0 SOSs, and 0 indicators.
Reduced MIQP objective Q matrix has 40 nonzeros.
Presolve time = 0.00 sec. (0.46 ticks)
Represolve time = 0.05 sec. (1.66 ticks)
Tried aggregator 1 time.
No QP presolve or aggregator reductions.
Presolve time = 0.00 sec. (0.20 ticks)
Parallel mode: using up to 8 threads for barrier.

***NOTE: Found 6 dense columns.

Number of nonzeros in lower triangle of A*A' = 720
Using Approximate Minimum Degree ordering
Total time for automatic ordering = 0.00 sec. (0.06 ticks)
Summary statistics for Cholesky factor:
  Threads                   = 8
  Rows in Factor            = 408
  Integer space required    = 635
  Total non-zeros in factor = 4457
  Total FP ops to factor    = 52977
 Itn      Primal Obj        Dual Obj  Prim Inf Upper Inf  Dual Inf          
   0   2.2248086e+10  -2.2270840e+10  2.58e+05  2.21e+05  1.06e+08
   1   3.9695248e+08  -4.0658655e+08  3.44e+04  2.95e+04  1.42e+07
   2   4.0327072e+06  -7.5621143e+06  3.47e+03  2.97e+03  1.43e+06
   3   5.2124389e+03  -5.6295231e+05  1.24e+02  1.06e+02  5.12e+04
   4   2.1525489e+00  -3.1328194e+04  2.52e+00  2.16e+00  1.04e+03
   5   5.5708109e-05  -1.6111515e+02  1.28e-02  1.10e-02  5.28e+00
   6   1.2095561e-09  -9.4818602e-01  5.96e-05  5.10e-05  2.46e-02
   7   2.4340520e-14  -5.4157428e-03  2.67e-07  2.29e-07  1.10e-04
   8   4.5461308e-19  -3.0032510e-05  1.15e-09  9.85e-10  4.74e-07
   9   7.9260869e-24  -1.6200893e-07  5.88e-12  4.59e-12  1.97e-09
  10   1.3068607e-28  -8.5384774e-10  8.06e-13  6.97e-13  7.95e-12
  11   2.0739741e-33  -4.4204880e-12  6.79e-13  6.99e-13  3.13e-14
Barrier time = 0.09 sec. (1.88 ticks)

QP crossover.
  Primal and Dual:  Fixing 126 variables.
  Primal:  Pushed 42, exchanged 84.
  Dual  :  Pushed 0, exchanged 44.
Total crossover time = 0.00 sec. (1.95 ticks)

Total time on 8 threads = 0.09 sec. (4.03 ticks)
*  8689+    0                         2583.6664        0.0000           100.00%
Found incumbent of value 2583.666410 after 5.80 sec. (982.14 ticks)
   8689     2        0.0000    74     2583.6664        0.0000    67678  100.00%
*  8712+    6                         2398.1543        0.0000           100.00%
Found incumbent of value 2398.154321 after 5.97 sec. (1044.49 ticks)
*  8719+    6                         1104.4797        0.0000           100.00%
Found incumbent of value 1104.479707 after 6.00 sec. (1059.98 ticks)
*  8729+    6                          946.1306        0.0000           100.00%
Found incumbent of value 946.130568 after 6.03 sec. (1071.10 ticks)
*  8731+    6                          932.5363        0.0000           100.00%
Found incumbent of value 932.536291 after 6.03 sec. (1072.82 ticks)
   9178   137        cutoff            932.5363        0.0000    69648  100.00%
  12880  1482      344.2948    58      932.5363        0.0000   100512  100.00%
  18171  1327        cutoff            932.5363      419.3923   143712   55.03%

Root node processing (before b&c):
  Real time             =    0.80 sec. (34.01 ticks)
Parallel b&c, 8 threads:
  Real time             =    7.08 sec. (1912.98 ticks)
  Sync time (average)   =    1.12 sec.
  Wait time (average)   =    0.00 sec.
                          ------------
Total (root+branch&cut) =    7.88 sec. (1946.99 ticks)

--- MIQP status (101): integer optimal solution.
--- Cplex Time: 7.95sec (det. 1946.99 ticks)

--- Fixing integer variables and solving final QP...

Version identifier: 20.1.0.1 | 2021-04-07 | 3a818710c
CPXPARAM_Advance                                 2
CPXPARAM_Threads                                 8
CPXPARAM_Parallel                                1
CPXPARAM_MIP_Display                             4
CPXPARAM_MIP_Tolerances_AbsMIPGap                0
CPXPARAM_MIP_Tolerances_MIPGap                   0
Tried aggregator 1 time.
QP Presolve eliminated 280 rows and 161 columns.
Reduced QP has 122 rows, 126 columns, and 444 nonzeros.
Reduced QP objective Q matrix has 40 nonzeros.
Presolve time = 0.00 sec. (0.19 ticks)

Iteration log . . .
Iteration:     1    Objective     =             0.000000
Iteration:    64    Objective     =             0.000000
Iteration:    85    Objective     =             0.000000
Iteration:   146    Objective     =             0.000000
Iteration:   169    Objective     =             0.000000

--- Fixed MIQP status (1): optimal.
--- Cplex Time: 0.06sec (det. 2.26 ticks)


Proven optimal solution
MIP Solution:          932.536291    (169452 iterations, 23629 nodes)
Final Solve:           932.536291    (208 iterations)

Best possible:         932.536291
Absolute gap:            0.000000
Relative gap:            0.000000

--- Reading solution for model m1
--- Executing after solve: elapsed 0:00:10.642
--- MultipleLineRegression.gms(116) 4 Mb
--- Generating MIP model m2
--- MultipleLineRegression.gms(136) 4 Mb
---   403 rows  327 columns  1,285 non-zeroes
---   120 discrete-columns
--- Executing CPLEX (Solvelink=2): elapsed 0:00:10.650

IBM ILOG CPLEX   36.1.0 r2c0a44a Released Aug 02, 2021 WEI x86 64bit/MS Window

--- GAMS/Cplex Link licensed for continuous and discrete problems.
--- GMO setup time: 0.00s
--- Space for names approximately 0.02 Mb
--- Use option 'names no' to turn use of names off
--- GMO memory 0.58 Mb (peak 0.59 Mb)
--- Dictionary memory 0.00 Mb
--- Cplex 20.1.0.1 link memory 0.01 Mb (peak 0.05 Mb)
--- Starting Cplex

Version identifier: 20.1.0.1 | 2021-04-07 | 3a818710c
CPXPARAM_Advance                                 0
CPXPARAM_Threads                                 8
CPXPARAM_Parallel                                1
CPXPARAM_MIP_Display                             4
CPXPARAM_MIP_Tolerances_AbsMIPGap                0
CPXPARAM_MIP_Tolerances_MIPGap                   0
Generic callback                                 0x50
Tried aggregator 2 times.
MIP Presolve eliminated 0 rows and 1 columns.
Aggregator did 120 substitutions.
Reduced MIP has 282 rows, 206 columns, and 1324 nonzeros.
Reduced MIP has 120 binaries, 0 generals, 0 SOSs, and 0 indicators.
Presolve time = 0.08 sec. (1.00 ticks)
Found incumbent of value 1977.248000 after 0.19 sec. (1.92 ticks)
Probing time = 0.00 sec. (0.05 ticks)
Tried aggregator 1 time.
Detecting symmetries...
Reduced MIP has 282 rows, 206 columns, and 1324 nonzeros.
Reduced MIP has 120 binaries, 0 generals, 0 SOSs, and 0 indicators.
Presolve time = 0.00 sec. (0.70 ticks)
Probing time = 0.00 sec. (0.05 ticks)
Clique table members: 40.
MIP emphasis: balance optimality and feasibility.
MIP search method: dynamic search.
Parallel mode: deterministic, using up to 8 threads.
Parallel mode: deterministic, using up to 2 threads for parallel tasks at root LP.
Tried aggregator 1 time.
No LP presolve or aggregator reductions.
Presolve time = 0.00 sec. (0.14 ticks)
Initializing dual steep norms . . .

Iteration log . . .
Iteration:     1   Dual objective     =             0.000000
Root relaxation solution time = 0.03 sec. (0.38 ticks)

        Nodes                                         Cuts/
   Node  Left     Objective  IInf  Best Integer    Best Bound    ItCnt     Gap

*     0+    0                         1977.2480        0.0000           100.00%
Found incumbent of value 1977.248000 after 0.24 sec. (3.78 ticks)
*     0+    0                          770.0809        0.0000           100.00%
Found incumbent of value 770.080899 after 0.24 sec. (3.78 ticks)
      0     0        0.0000    80      770.0809        0.0000       40  100.00%
*     0+    0                          653.0966        0.0000           100.00%
Found incumbent of value 653.096639 after 0.30 sec. (11.35 ticks)
Detecting symmetries...
      0     2        0.0000    68      653.0966        0.0000       40  100.00%
Elapsed time = 0.42 sec. (20.20 ticks, tree = 0.02 MB, solutions = 3)
*    83+   24                          603.7487        0.0000           100.00%
Found incumbent of value 603.748670 after 0.52 sec. (27.04 ticks)
*   116+   44                          596.8601        0.0000           100.00%
Found incumbent of value 596.860140 after 0.53 sec. (28.46 ticks)
*   153+   74                          549.1905        0.0000           100.00%
Found incumbent of value 549.190494 after 0.56 sec. (30.73 ticks)
*   273+  157                          533.2524        0.0000           100.00%
Found incumbent of value 533.252431 after 0.59 sec. (36.02 ticks)
*   320+  187                          488.8650        0.0000           100.00%
Found incumbent of value 488.865017 after 0.61 sec. (37.33 ticks)
*   320+  177                          463.2939        0.0000           100.00%
Found incumbent of value 463.293917 after 0.61 sec. (37.35 ticks)
*   428+  295                          428.6781        0.0000           100.00%
Found incumbent of value 428.678123 after 0.66 sec. (42.68 ticks)
*   673+  316                          424.5687        0.0000           100.00%
Found incumbent of value 424.568684 after 0.72 sec. (49.95 ticks)
*   841+  418                          420.6572        0.0000           100.00%
Found incumbent of value 420.657218 after 0.81 sec. (55.77 ticks)
*   861+  501                          402.7475        0.0000           100.00%
Found incumbent of value 402.747519 after 0.81 sec. (56.61 ticks)
*  1094+  730                          399.2461        0.0000           100.00%
Found incumbent of value 399.246086 after 0.88 sec. (64.07 ticks)
*  1121+  780                          347.0194        0.0000           100.00%
Found incumbent of value 347.019434 after 0.89 sec. (65.05 ticks)
*  1166   717      integral     0      341.3881        0.0000     5485  100.00%
Found incumbent of value 341.388133 after 0.91 sec. (66.19 ticks)
*  1839+  831                          323.4220        0.0000           100.00%
Found incumbent of value 323.422017 after 1.11 sec. (84.26 ticks)
*  1906+  825                          297.6314        0.0000           100.00%
Found incumbent of value 297.631428 after 1.16 sec. (88.93 ticks)
*  1909+  817                          259.7900        0.0000           100.00%
Found incumbent of value 259.789959 after 1.20 sec. (93.17 ticks)
*  2351+ 1058                          227.1140        0.0000           100.00%
Found incumbent of value 227.113994 after 1.64 sec. (136.47 ticks)
*  3000+ 1058                          218.9052        0.0000           100.00%
Found incumbent of value 218.905154 after 1.94 sec. (164.61 ticks)
*  3062+ 1058                          206.9116        0.0000           100.00%
Found incumbent of value 206.911623 after 1.94 sec. (166.64 ticks)
*  3313+ 1078                          204.1922        0.0000           100.00%
Found incumbent of value 204.192207 after 2.05 sec. (176.71 ticks)
*  3666+ 1058                          203.0421        0.0000           100.00%
Found incumbent of value 203.042100 after 2.20 sec. (188.98 ticks)
*  3757+ 1058                          183.4839        0.0000           100.00%
Found incumbent of value 183.483913 after 2.25 sec. (192.22 ticks)
*  3804+ 1058                          173.6942        0.0000           100.00%
Found incumbent of value 173.694184 after 2.25 sec. (194.38 ticks)
*  4353+ 1058                          172.4753        0.0000           100.00%
Found incumbent of value 172.475262 after 2.41 sec. (213.89 ticks)
*  4407+ 1058                          162.3043        0.0000           100.00%
Found incumbent of value 162.304287 after 2.41 sec. (215.73 ticks)
   6463  2427      134.2928    54      162.3043        0.0000    27156  100.00%

Performing restart 1

Repeating presolve.
Tried aggregator 1 time.
Reduced MIP has 282 rows, 206 columns, and 1324 nonzeros.
Reduced MIP has 120 binaries, 0 generals, 0 SOSs, and 0 indicators.
Presolve time = 0.00 sec. (0.51 ticks)
Tried aggregator 1 time.
Reduced MIP has 282 rows, 206 columns, and 1324 nonzeros.
Reduced MIP has 120 binaries, 0 generals, 0 SOSs, and 0 indicators.
Presolve time = 0.00 sec. (0.71 ticks)
Represolve time = 0.03 sec. (2.33 ticks)
Tried aggregator 1 time.
No LP presolve or aggregator reductions.
Presolve time = 0.00 sec. (0.14 ticks)
Initializing dual steep norms . . .

Iteration log . . .
Iteration:     1   Dual objective     =             0.000000
   9375     0        0.0000    72      162.3043      Fract: 9    45056  100.00%
   9375     0        0.0000    90      162.3043     Fract: 26    45111  100.00%
   9375     0        0.0000    70      162.3043      Fract: 8    45135  100.00%
   9375     0        0.0000    78      162.3043     Fract: 28    45196  100.00%
   9375     0        0.0000    82      162.3043      Cuts: 25    45239  100.00%
   9375     0        0.0000    78      162.3043     Fract: 35    45291  100.00%
   9417    40       25.2615    66      162.3043        0.0000    45538  100.00%
*  9475+    4                          155.9202        0.0000           100.00%
Found incumbent of value 155.920184 after 4.41 sec. (559.14 ticks)
*  9584+   85                          153.3237        0.0000           100.00%
Found incumbent of value 153.323716 after 4.49 sec. (587.31 ticks)
* 10375+  401                          147.8852        0.0000           100.00%
Found incumbent of value 147.885172 after 4.81 sec. (651.99 ticks)
* 10543+  401                          147.0709        0.0000           100.00%
Found incumbent of value 147.070862 after 4.89 sec. (698.74 ticks)
  11534   851      143.9197    62      147.0709        0.0000    52277  100.00%
  26205  8372       35.7228    70      147.0709       11.3790   115553   92.26%
  44717 17309      141.9152    48      147.0709       32.6756   190935   77.78%
                                                      Cuts: 3                  
  62636 23312      110.1906    64      147.0709       43.9856   254047   70.09%
                                                     Fract: 6                  
  76856 28928      119.5965    62      147.0709       51.5913   326026   64.92%
                                                      Cuts: 2                  
  94809 34623        cutoff            147.0709       58.5201   404993   60.21%
 112635 40895       93.9267    58      147.0709       65.3064   491498   55.60%
 181525 59091      146.1037    56      147.0709       82.3652   799655   44.00%
                                                     Fract: 8                  
Elapsed time = 12.08 sec. (3121.29 ticks, tree = 16.47 MB, solutions = 62)
 251710 73305      136.5176    58      147.0709       95.0104  1076359   35.40%
*266894+77379                          146.8090       97.6531            33.48%
Found incumbent of value 146.808967 after 15.11 sec. (4326.92 ticks)
*267136+77379                          145.2675       97.6531            32.78%
Found incumbent of value 145.267499 after 15.13 sec. (4333.94 ticks)
*267847+77377                          143.4902       97.6531            31.94%
Found incumbent of value 143.490250 after 15.17 sec. (4350.86 ticks)
*269167+70814                          143.1632       97.9661            31.57%
                                                     Fract: 1                  
Found incumbent of value 143.163226 after 15.25 sec. (4376.92 ticks)
 314819 74706      120.6793    50      143.1632      104.0968  1332313   27.29%
 382940 76348        cutoff            143.1632      113.4559  1611384   20.75%
 444488 71387        cutoff            143.1632      120.5082  1833645   15.82%
 508979 56603      139.1649    44      143.1632      128.2265  2053727   10.43%
 570888 28978      137.8339    48      143.1632      136.3091  2261262    4.79%

Flow cuts applied:  1
Mixed integer rounding cuts applied:  1
Gomory fractional cuts applied:  19

Root node processing (before b&c):
  Real time             =    0.44 sec. (20.29 ticks)
Parallel b&c, 8 threads:
  Real time             =   29.88 sec. (9537.60 ticks)
  Sync time (average)   =    5.35 sec.
  Wait time (average)   =    0.02 sec.
                          ------------
Total (root+branch&cut) =   30.31 sec. (9557.88 ticks)

--- MIP status (101): integer optimal solution.
--- Cplex Time: 30.33sec (det. 9557.89 ticks)

--- Fixing integer variables and solving final LP...

Version identifier: 20.1.0.1 | 2021-04-07 | 3a818710c
CPXPARAM_Advance                                 2
CPXPARAM_Threads                                 8
CPXPARAM_Parallel                                1
CPXPARAM_MIP_Display                             4
CPXPARAM_MIP_Tolerances_AbsMIPGap                0
CPXPARAM_MIP_Tolerances_MIPGap                   0
Tried aggregator 1 time.
LP Presolve eliminated 280 rows and 161 columns.
Reduced LP has 122 rows, 166 columns, and 564 nonzeros.
Presolve time = 0.01 sec. (0.32 ticks)
Initializing dual steep norms . . .

Iteration log . . .
Iteration:     1   Dual objective     =             0.000000

--- Fixed MIP status (1): optimal.
--- Cplex Time: 0.01sec (det. 0.77 ticks)


Proven optimal solution
MIP Solution:          143.163226    (2389586 iterations, 613502 nodes)
Final Solve:           143.163226    (42 iterations)

Best possible:         143.163226
Absolute gap:            0.000000
Relative gap:            0.000000

--- Reading solution for model m2
--- Executing after solve: elapsed 0:00:41.473
--- MultipleLineRegression.gms(147) 4 Mb
*** Status: Normal completion
--- Job MultipleLineRegression.gms Stop 09/20/21 17:10:22 elapsed 0:00:41.477
